NAME          BLANK   
ROWS
 N  OBJROW
 L  R0000000
COLUMNS
    C0000000  OBJROW     -376.         R0000000  516.        
    C0000001  OBJROW     -74.          R0000000  623.        
    C0000002  OBJROW     -400.         R0000000  634.        
    C0000003  OBJROW     -79.          R0000000  913.        
    C0000004  OBJROW     -929.         R0000000  794.        
    C0000005  OBJROW     -920.         R0000000  192.        
    C0000006  OBJROW     -425.         R0000000  653.        
    C0000007  OBJROW     -697.         R0000000  607.        
    C0000008  OBJROW     -33.          R0000000  833.        
    C0000009  OBJROW     -346.         R0000000  202.        
    C0000010  OBJROW     -353.         R0000000  967.        
RHS
    RHS       R0000000  15344.      
BOUNDS
 BV BOUND     C0000000  1.          
 BV BOUND     C0000001  1.          
 BV BOUND     C0000002  1.          
 BV BOUND     C0000003  1.          
 BV BOUND     C0000004  1.          
 BV BOUND     C0000005  1.          
 BV BOUND     C0000006  1.          
 BV BOUND     C0000007  1.          
 BV BOUND     C0000008  1.          
 BV BOUND     C0000009  1.          
 BV BOUND     C0000010  1.          
ENDATA
